experiments/21_JSA_experiments/solutions/scalability/imx8a/IN_20_9.json-ILP-IDLE-MAX.out.log
Using license file /home/benedond/gurobi.lic
Using gurobi.env file
Set parameter Threads to value 1
Academic license - for non-commercial use only
Changed value of parameter TimeLimit to 300.0
   Prev: inf  Min: 0.0  Max: inf  Default: inf
Gurobi Optimizer version 9.0.1 build v9.0.1rc0 (linux64)
Optimize a model with 880 rows, 820 columns and 3258 nonzeros
Model fingerprint: 0x561f37e2
Variable types: 20 continuous, 800 integer (800 binary)
Coefficient statistics:
  Matrix range     [1e+00, 4e+02]
  Objective range  [3e+01, 4e+02]
  Bounds range     [1e+00, 1e+00]
  RHS range        [1e+00, 8e+02]
Presolve removed 535 rows and 517 columns
Presolve time: 0.18s
Presolved: 345 rows, 303 columns, 2347 nonzeros
Variable types: 20 continuous, 283 integer (283 binary)

Root relaxation: objective 2.844000e+03, 144 iterations, 0.00 seconds

    Nodes    |    Current Node    |     Objective Bounds      |     Work
 Expl Unexpl |  Obj  Depth IntInf | Incumbent    BestBd   Gap | It/Node Time

H    0     0                    2844.0000000 4630.00000  62.8%     -    0s
     0     0          -    0      2844.00000 2844.00000  0.00%     -    0s

Explored 0 nodes (365 simplex iterations) in 0.18 seconds
Thread count was 1 (of 4 available processors)

Solution count 1: 2844 

Optimal solution found (tolerance 1.00e-04)
Best objective 2.844000000000e+03, best bound 2.844000000000e+03, gap 0.0000%
